35500.0
18, 30, 50, 53, 134, 215, 216, 347, 379, 506, 541, 564, 732, 770, 824, 830, 901, 959, 987, 1027, 1032, 1143, 1209, 1322, 1342, 1433, 1457, 1472, 1483, 1520, 1539, 1572, 1604, 1617, 1654, 1672, 1696, 1716, 1729, 1763, 1803, 1805, 1873, 1890, 1904, 1979, 1991